decision_x1=[0,2];
decision_x2=[0,2];
decision_x3=[0,2];
decision_x4=[0,2];
decision_x5=[0,2];
decision_x6=[0,2];
random_y1=[0,2];
random_y2=[0,2];
constraint_x3_x1=[
0,0,5.4|
0,1,8.7|
0,2,6.9|
1,0,0.78|
1,1,8.4|
1,2,2.5|
2,0,6.2|
2,1,2.6|
2,2,6.4|
];
constraint_x4_x2=[
0,0,0.35|
0,1,4.9|
0,2,3.8|
1,0,1.1|
1,1,7.8|
1,2,8.3|
2,0,7.1|
2,1,9|
2,2,2|
];
constraint_x4_x3=[
0,0,6.1|
0,1,4.8|
0,2,5|
1,0,7.3|
1,1,4.7|
1,2,2.4|
2,0,6.6|
2,1,9.3|
2,2,3.4|
];
constraint_x5_x1=[
0,0,1.6|
0,1,5.1|
0,2,8.7|
1,0,8.8|
1,1,0.28|
1,2,9.4|
2,0,7.2|
2,1,5.7|
2,2,2.5|
];
constraint_x5_x2=[
0,0,8.8|
0,1,6.2|
0,2,3.2|
1,0,6.1|
1,1,8.3|
1,2,3|
2,0,3.6|
2,1,0.54|
2,2,5.1|
];
constraint_x5_x4=[
0,0,6.2|
0,1,5.5|
0,2,5.6|
1,0,5.1|
1,1,0.14|
1,2,8.6|
2,0,8.8|
2,1,7.5|
2,2,9.5|
];
constraint_x6_x2=[
0,0,4.4|
0,1,9.3|
0,2,3.7|
1,0,7.1|
1,1,1.8|
1,2,3.4|
2,0,9.9|
2,1,4.8|
2,2,6.1|
];
constraint_x6_x4=[
0,0,0.83|
0,1,7.4|
0,2,9.8|
1,0,1.6|
1,1,7.7|
1,2,8.9|
2,0,4.6|
2,1,4|
2,2,6.3|
];
constraint_x1_y1=[
0,0,9.5|
0,1,3.1|
0,2,4.7|
1,0,3.7|
1,1,9.2|
1,2,4.7|
2,0,2.6|
2,1,9|
2,2,2.6|
];
constraint_x2_y2=[
0,0,6|
0,1,0.24|
0,2,6.8|
1,0,8.4|
1,1,4.4|
1,2,3.5|
2,0,2.3|
2,1,3.6|
2,2,6.2|
];
initial_distribution_y1=[0.45,0.15,0.4];
initial_distribution_y2=[0.44,0.25,0.3];
transition_y1=[
0.39,0.53,0.084|
0.41,0.51,0.077|
0.69,0.28,0.031|
];
transition_y2=[
0.15,0.73,0.12|
0.8,0.045,0.16|
0.027,0.54,0.44|
];
